data/rand/rand_062.gr
p tdp 15 58
1 4
1 6
1 9
1 11
1 12
1 13
1 14
2 3
2 4
2 6
2 8
2 9
2 13
2 15
3 4
3 6
3 7
3 11
3 12
3 13
3 15
4 5
4 6
4 7
4 9
4 10
4 12
4 13
5 9
5 11
5 14
6 8
6 9
6 10
6 11
6 15
7 10
7 12
7 13
7 14
7 15
8 11
8 12
8 13
8 14
9 10
9 14
9 15
10 11
10 13
10 14
11 12
11 13
12 13
12 15
13 14
13 15
14 15
