solutions/best/rand/rand_062.sol
11
0
1
12
2
9
4
6
12
14
9
7
14
11
15
13
